(set-info :origin "SVCOMP13 benchmarks generated by Arie Gurfinkel")
(set-info :status unsat)
(set-logic HORN)
(declare-fun cp-rel-entry () Bool)
(declare-fun cp-rel-bb1.i.i (Real Real Real Real) Bool)
(declare-fun cp-rel-bb1.i.i29.i.i () Bool)
(assert |cp-rel-entry|)
(assert (forall ((?A Real) (?B Real) (?C Real) (?D Real) (?E Bool) )(let (($x170919 (and |cp-rel-entry| (<= ?D 0.0) (>= ?C 1.0) (<= ?C 1.0) (>= ?B 1.0) (<= ?B 1.0) (>= ?A 0.0) (<= ?A 0.0) (= ?E true) (>= ?D 0.0))))
(=> $x170919 (|cp-rel-bb1.i.i| ?A ?B ?C ?D))))
)
(assert (forall ((?A Real) (?B Real) (?C Real) (?D Real) (?E Real) (?F Real) (?G Real) (?H Real) (?I Bool) (?J Bool) (?K Bool) (?L Bool) (?M Bool) (?N Bool) (?O Real) (?P Real) (?Q Bool) (?R Bool) (?S Bool) (?T Bool) (?U Bool) (?V Bool) (?W Real) (?X Real) (?Y Bool) (?Z Bool) (?A1 Bool) (?B1 Bool) (?C1 Bool) (?D1 Bool) (?E1 Bool) (?F1 Bool) (?G1 Bool) (?H1 Bool) (?I1 Bool) (?J1 Bool) (?K1 Bool) (?L1 Real) (?M1 Real) (?N1 Bool) (?O1 Bool) (?P1 Bool) (?Q1 Bool) (?R1 Bool) (?S1 Bool) (?T1 Bool) (?U1 Bool) (?V1 Bool) (?W1 Bool) (?X1 Bool) (?Y1 Bool) (?Z1 Bool) (?A2 Bool) (?B2 Bool) (?C2 Bool) (?D2 Real) (?E2 Real) (?F2 Real) (?G2 Real) (?H2 Bool) (?I2 Bool) (?J2 Bool) (?K2 Bool) (?L2 Bool) (?M2 Bool) (?N2 Real) (?O2 Bool) (?P2 Real) (?Q2 Real) (?R2 Bool) (?S2 Real) (?T2 Real) (?U2 Bool) (?V2 Real) (?W2 Bool) (?X2 Bool) (?Y2 Bool) )(let (($x312664 (|cp-rel-bb1.i.i| ?E ?F ?G ?H)))
(let (($x355930 (= ?M2 (or ?Y2 ?X2))))
(let (($x420614 (or (not ?I) (and ?J ?K (not ?L)))))
(let (($x870299 (or (not ?I) ?K)))
(let (($x846234 (not ?M)))
(let (($x213270 (or $x846234 (and ?I ?N (<= ?O ?P) (>= ?O ?P)) (and ?J ?Q ?L (<= ?O ?B) (>= ?O ?B)))))
(let (($x250373 (or $x846234 (and ?N (not ?Q)) (and ?Q (not ?N)))))
(let (($x865724 (or (not ?R) (and ?M ?S (not ?T)))))
(let (($x872293 (or (not ?R) ?S)))
(let (($x272586 (not ?U)))
(let (($x453240 (or $x272586 (and ?R ?V (<= ?W ?X) (>= ?W ?X)) (and ?M ?Y ?T (<= ?W ?A) (>= ?W ?A)))))
(let (($x240254 (or $x272586 (and ?V (not ?Y)) (and ?Y (not ?V)))))
(let (($x567711 (or (not ?Z) (and ?U ?A1 ?B1))))
(let (($x410430 (or (not ?Z) ?A1)))
(let (($x325891 (or (not ?C1) (and ?Z ?D1 ?E1) (and ?U ?F1 (not ?B1)))))
(let (($x927514 (or (not ?C1) (and ?D1 (not ?F1)) (and ?F1 (not ?D1)))))
(let (($x583990 (or (not ?G1) (and ?C1 ?H1 (not ?I1)))))
(let (($x512763 (or (not ?G1) ?H1)))
(let (($x210149 (or (not ?J1) (and ?G1 ?K1 (<= ?L1 ?M1) (>= ?L1 ?M1)) (and ?C1 ?N1 ?I1 (<= ?L1 ?O) (>= ?L1 ?O)))))
(let (($x174579 (or (not ?J1) (and ?K1 (not ?N1)) (and ?N1 (not ?K1)))))
(let (($x101848 (or (not ?O1) (and ?J1 ?P1 (not ?Q1)))))
(let (($x896094 (or (not ?O1) ?P1)))
(let (($x563478 (or (not ?R1) (and ?O1 ?S1 ?I1))))
(let (($x298485 (or (not ?R1) ?S1)))
(let (($x850563 (or (not ?T1) (and ?O1 ?U1 (not ?I1)))))
(let (($x309372 (or (not ?T1) ?U1)))
(let (($x395822 (or (not ?V1) (and ?R1 ?W1 ?X1))))
(let (($x95406 (or (not ?V1) ?W1)))
(let (($x618779 (or (not ?Y1) (and ?T1 ?Z1 ?A2))))
(let (($x146995 (or (not ?Y1) ?Z1)))
(let (($x861216 (>= ?F2 0.0)))
(let (($x619821 (<= ?F2 0.0)))
(let (($x57232 (and ?Z ?L2 (not ?E1) (<= ?D2 0.0) (>= ?D2 0.0) (<= ?E2 ?O) (>= ?E2 ?O) $x619821 $x861216)))
(let (($x851891 (>= ?F2 ?D)))
(let (($x273815 (<= ?F2 ?D)))
(let (($x338865 (>= ?E2 ?L1)))
(let (($x283602 (<= ?E2 ?L1)))
(let (($x99229 (>= ?D2 ?C)))
(let (($x480103 (<= ?D2 ?C)))
(let (($x829593 (not ?B2)))
(let (($x391554 (or $x829593 (and ?V1 ?C2 $x480103 $x99229 $x283602 $x338865 (<= ?F2 ?G2) (>= ?F2 ?G2)) (and ?R1 ?H2 (not ?X1) $x480103 $x99229 $x283602 $x338865 $x273815 $x851891) (and ?Y1 ?I2 $x480103 $x99229 $x283602 $x338865 $x273815 $x851891) (and ?T1 ?J2 (not ?A2) $x480103 $x99229 $x283602 $x338865 $x619821 $x861216) (and ?J1 ?K2 ?Q1 $x480103 $x99229 $x283602 $x338865 $x273815 $x851891) $x57232)))
(let (($x334275 (or $x829593 (and ?C2 (not ?H2) (not ?I2) (not ?J2) (not ?K2) (not ?L2)) (and ?H2 (not ?C2) (not ?I2) (not ?J2) (not ?K2) (not ?L2)) (and ?I2 (not ?C2) (not ?H2) (not ?J2) (not ?K2) (not ?L2)) (and ?J2 (not ?C2) (not ?H2) (not ?I2) (not ?K2) (not ?L2)) (and ?K2 (not ?C2) (not ?H2) (not ?I2) (not ?J2) (not ?L2)) (and ?L2 (not ?C2) (not ?H2) (not ?I2) (not ?J2) (not ?K2)))))
(let (($x179837 (= ?B2 true)))
(let (($x326770 (= ?M2 true)))
(let (($x268589 (= ?L (= ?N2 0.0))))
(let (($x136298 (= ?P2 (ite ?O2 1.0 0.0))))
(let (($x60957 (= ?T (= ?Q2 0.0))))
(let (($x451146 (= ?X (ite ?R2 1.0 0.0))))
(let (($x446848 (= ?B1 (= ?S2 0.0))))
(let (($x396556 (= ?E1 (= ?T2 0.0))))
(let (($x552560 (= ?U2 (not (<= ?O 0.0)))))
(let (($x375785 (= ?V2 (+ (~ 1.0) ?O))))
(let (($x316475 (= ?M1 (ite ?U2 ?V2 ?O))))
(let (($x280350 (= ?X1 (not (<= ?L1 1.0)))))
(let (($x89463 (= ?A2 (= ?W 0.0))))
(let (($x64478 (= ?W2 (= ?W 0.0))))
(let (($x449881 (= ?X2 (not (= ?E2 0.0)))))
(let (($x846219 (= ?Y2 (= ?F2 0.0))))
(let (($x104903 (and (|cp-rel-bb1.i.i| ?A ?B ?C ?D) $x846219 $x449881 (= ?G2 (ite ?W2 1.0 ?D)) $x64478 $x89463 $x280350 (= ?Q1 (= ?C 0.0)) $x316475 $x375785 $x552560 (= ?I1 (= ?D 0.0)) $x396556 $x446848 $x451146 (= ?R2 (= ?A 0.0)) $x60957 (= ?P (+ ?P2 ?B)) $x136298 (= ?O2 (not (<= 2.0 ?B))) $x268589 (>= ?H ?F2) (<= ?H ?F2) (>= ?G ?D2) (<= ?G ?D2) (>= ?F ?E2) (<= ?F ?E2) (>= ?E ?W) (<= ?E ?W) $x326770 $x179837 $x334275 $x391554 $x146995 $x618779 $x95406 $x395822 $x309372 $x850563 $x298485 $x563478 $x896094 $x101848 $x174579 $x210149 $x512763 $x583990 $x927514 $x325891 $x410430 $x567711 $x240254 $x453240 $x872293 $x865724 $x250373 $x213270 $x870299 $x420614 $x355930)))
(=> $x104903 $x312664)))))))))))))))))))))))))))))))))))))))))))))))))))))))))))))
)
(assert (forall ((?A Real) (?B Real) (?C Real) (?D Real) (?E Bool) (?F Bool) (?G Bool) (?H Bool) (?I Bool) (?J Bool) (?K Real) (?L Real) (?M Bool) (?N Bool) (?O Bool) (?P Bool) (?Q Bool) (?R Bool) (?S Real) (?T Real) (?U Bool) (?V Bool) (?W Bool) (?X Bool) (?Y Bool) (?Z Bool) (?A1 Bool) (?B1 Bool) (?C1 Bool) (?D1 Bool) (?E1 Bool) (?F1 Bool) (?G1 Bool) (?H1 Real) (?I1 Real) (?J1 Bool) (?K1 Bool) (?L1 Bool) (?M1 Bool) (?N1 Bool) (?O1 Bool) (?P1 Bool) (?Q1 Bool) (?R1 Bool) (?S1 Bool) (?T1 Bool) (?U1 Bool) (?V1 Bool) (?W1 Bool) (?X1 Bool) (?Y1 Bool) (?Z1 Real) (?A2 Real) (?B2 Real) (?C2 Real) (?D2 Bool) (?E2 Bool) (?F2 Bool) (?G2 Bool) (?H2 Bool) (?I2 Bool) (?J2 Real) (?K2 Bool) (?L2 Real) (?M2 Real) (?N2 Bool) (?O2 Real) (?P2 Real) (?Q2 Bool) (?R2 Real) (?S2 Bool) (?T2 Bool) (?U2 Bool) )(let (($x355930 (= ?I2 (or ?U2 ?T2))))
(let (($x420614 (or (not ?E) (and ?F ?G (not ?H)))))
(let (($x870299 (or (not ?E) ?G)))
(let (($x846234 (not ?I)))
(let (($x868569 (or $x846234 (and ?E ?J (<= ?K ?L) (>= ?K ?L)) (and ?F ?M ?H (<= ?K ?B) (>= ?K ?B)))))
(let (($x250373 (or $x846234 (and ?J (not ?M)) (and ?M (not ?J)))))
(let (($x865724 (or (not ?N) (and ?I ?O (not ?P)))))
(let (($x872293 (or (not ?N) ?O)))
(let (($x272586 (not ?Q)))
(let (($x358268 (or $x272586 (and ?N ?R (<= ?S ?T) (>= ?S ?T)) (and ?I ?U ?P (<= ?S ?A) (>= ?S ?A)))))
(let (($x240254 (or $x272586 (and ?R (not ?U)) (and ?U (not ?R)))))
(let (($x567711 (or (not ?V) (and ?Q ?W ?X))))
(let (($x410430 (or (not ?V) ?W)))
(let (($x325891 (or (not ?Y) (and ?V ?Z ?A1) (and ?Q ?B1 (not ?X)))))
(let (($x927514 (or (not ?Y) (and ?Z (not ?B1)) (and ?B1 (not ?Z)))))
(let (($x583990 (or (not ?C1) (and ?Y ?D1 (not ?E1)))))
(let (($x512763 (or (not ?C1) ?D1)))
(let (($x210149 (or (not ?F1) (and ?C1 ?G1 (<= ?H1 ?I1) (>= ?H1 ?I1)) (and ?Y ?J1 ?E1 (<= ?H1 ?K) (>= ?H1 ?K)))))
(let (($x174579 (or (not ?F1) (and ?G1 (not ?J1)) (and ?J1 (not ?G1)))))
(let (($x101848 (or (not ?K1) (and ?F1 ?L1 (not ?M1)))))
(let (($x896094 (or (not ?K1) ?L1)))
(let (($x563478 (or (not ?N1) (and ?K1 ?O1 ?E1))))
(let (($x298485 (or (not ?N1) ?O1)))
(let (($x850563 (or (not ?P1) (and ?K1 ?Q1 (not ?E1)))))
(let (($x309372 (or (not ?P1) ?Q1)))
(let (($x395822 (or (not ?R1) (and ?N1 ?S1 ?T1))))
(let (($x95406 (or (not ?R1) ?S1)))
(let (($x618779 (or (not ?U1) (and ?P1 ?V1 ?W1))))
(let (($x146995 (or (not ?U1) ?V1)))
(let (($x861216 (>= ?B2 0.0)))
(let (($x619821 (<= ?B2 0.0)))
(let (($x57232 (and ?V ?H2 (not ?A1) (<= ?Z1 0.0) (>= ?Z1 0.0) (<= ?A2 ?K) (>= ?A2 ?K) $x619821 $x861216)))
(let (($x395684 (>= ?B2 ?D)))
(let (($x299072 (<= ?B2 ?D)))
(let (($x338865 (>= ?A2 ?H1)))
(let (($x283602 (<= ?A2 ?H1)))
(let (($x277325 (>= ?Z1 ?C)))
(let (($x552567 (<= ?Z1 ?C)))
(let (($x829593 (not ?X1)))
(let (($x362895 (or $x829593 (and ?R1 ?Y1 $x552567 $x277325 $x283602 $x338865 (<= ?B2 ?C2) (>= ?B2 ?C2)) (and ?N1 ?D2 (not ?T1) $x552567 $x277325 $x283602 $x338865 $x299072 $x395684) (and ?U1 ?E2 $x552567 $x277325 $x283602 $x338865 $x299072 $x395684) (and ?P1 ?F2 (not ?W1) $x552567 $x277325 $x283602 $x338865 $x619821 $x861216) (and ?F1 ?G2 ?M1 $x552567 $x277325 $x283602 $x338865 $x299072 $x395684) $x57232)))
(let (($x334275 (or $x829593 (and ?Y1 (not ?D2) (not ?E2) (not ?F2) (not ?G2) (not ?H2)) (and ?D2 (not ?Y1) (not ?E2) (not ?F2) (not ?G2) (not ?H2)) (and ?E2 (not ?Y1) (not ?D2) (not ?F2) (not ?G2) (not ?H2)) (and ?F2 (not ?Y1) (not ?D2) (not ?E2) (not ?G2) (not ?H2)) (and ?G2 (not ?Y1) (not ?D2) (not ?E2) (not ?F2) (not ?H2)) (and ?H2 (not ?Y1) (not ?D2) (not ?E2) (not ?F2) (not ?G2)))))
(let (($x179837 (= ?X1 true)))
(let (($x268589 (= ?H (= ?J2 0.0))))
(let (($x136298 (= ?L2 (ite ?K2 1.0 0.0))))
(let (($x60957 (= ?P (= ?M2 0.0))))
(let (($x451146 (= ?T (ite ?N2 1.0 0.0))))
(let (($x446848 (= ?X (= ?O2 0.0))))
(let (($x396556 (= ?A1 (= ?P2 0.0))))
(let (($x552560 (= ?Q2 (not (<= ?K 0.0)))))
(let (($x375785 (= ?R2 (+ (~ 1.0) ?K))))
(let (($x316475 (= ?I1 (ite ?Q2 ?R2 ?K))))
(let (($x280350 (= ?T1 (not (<= ?H1 1.0)))))
(let (($x89463 (= ?W1 (= ?S 0.0))))
(let (($x64478 (= ?S2 (= ?S 0.0))))
(let (($x449881 (= ?T2 (not (= ?A2 0.0)))))
(let (($x846219 (= ?U2 (= ?B2 0.0))))
(let (($x312664 (|cp-rel-bb1.i.i| ?A ?B ?C ?D)))
(let (($x88056 (and $x312664 $x846219 $x449881 (= ?C2 (ite ?S2 1.0 ?D)) $x64478 $x89463 $x280350 (= ?M1 (= ?C 0.0)) $x316475 $x375785 $x552560 (= ?E1 (= ?D 0.0)) $x396556 $x446848 $x451146 (= ?N2 (= ?A 0.0)) $x60957 (= ?L (+ ?L2 ?B)) $x136298 (= ?K2 (not (<= 2.0 ?B))) $x268589 (not (= ?I2 true)) $x179837 $x334275 $x362895 $x146995 $x618779 $x95406 $x395822 $x309372 $x850563 $x298485 $x563478 $x896094 $x101848 $x174579 $x210149 $x512763 $x583990 $x927514 $x325891 $x410430 $x567711 $x240254 $x358268 $x872293 $x865724 $x250373 $x868569 $x870299 $x420614 $x355930)))
(=> $x88056 |cp-rel-bb1.i.i29.i.i|))))))))))))))))))))))))))))))))))))))))))))))))))))))))))))
)
(assert (not cp-rel-bb1.i.i29.i.i))
(check-sat)
